Version identifier: 22.1.0.0 | 2022-03-09 | 1a383f8ce
CPXPARAM_Threads                                 1
CPXPARAM_MIP_Strategy_VariableSelect             3
CPXPARAM_TimeLimit                               600
Tried aggregator 1 time.
MIP Presolve eliminated 12 rows and 0 columns.
MIP Presolve modified 1 coefficients.
Reduced MIP has 4508 rows, 10001 columns, and 110140 nonzeros.
Reduced MIP has 10000 binaries, 0 generals, 0 SOSs, and 0 indicators.
Presolve time = 0.06 sec. (37.00 ticks)
Found incumbent of value 17.000000 after 0.15 sec. (106.32 ticks)
Probing time = 0.01 sec. (4.58 ticks)
Tried aggregator 1 time.
Detecting symmetries...
Reduced MIP has 4508 rows, 10001 columns, and 110140 nonzeros.
Reduced MIP has 10000 binaries, 0 generals, 0 SOSs, and 0 indicators.
Presolve time = 0.06 sec. (46.74 ticks)
Probing time = 0.01 sec. (4.58 ticks)
Clique table members: 500.
MIP emphasis: balance optimality and feasibility.
MIP search method: dynamic search.
Parallel mode: none, using 1 thread.
Root relaxation solution time = 6.08 sec. (5426.31 ticks)

        Nodes                                         Cuts/
   Node  Left     Objective  IInf  Best Integer    Best Bound    ItCnt     Gap

*     0+    0                           17.0000        0.0000           100.00%
      0     0        0.0000  2275       17.0000        0.0000    12113  100.00%
*     0+    0                            2.0000        0.0000           100.00%
*     0+    0                            1.0000        0.0000           100.00%
      0     2        0.0000   150        1.0000        0.0000    12113  100.00%
Elapsed time = 40.07 sec. (33933.22 ticks, tree = 0.01 MB, solutions = 3)
      1     3        0.0000  1137        1.0000        0.0000    36420  100.00%
      2     4        0.0000   529        1.0000        0.0000    42790  100.00%
      3     5        0.0000  1209        1.0000        0.0000    57241  100.00%
      4     6        0.0000   586        1.0000        0.0000    57272  100.00%
      5     7        0.0000   456        1.0000        0.0000    61454  100.00%
      6     8        0.0000   543        1.0000        0.0000    70689  100.00%
      7     9        0.0000   457        1.0000        0.0000    73059  100.00%
      8    10        0.0000   547        1.0000        0.0000    82308  100.00%
      9    11        0.0000   881        1.0000        0.0000    83428  100.00%
     10    12        0.0000   621        1.0000        0.0000    84343  100.00%
Elapsed time = 85.94 sec. (74980.84 ticks, tree = 0.21 MB, solutions = 3)
     11    13        0.0000   526        1.0000        0.0000    87744  100.00%
     12    14        0.0000   451        1.0000        0.0000    97455  100.00%
     13    15        0.0000   546        1.0000        0.0000   101256  100.00%
     14    16        0.0000  1106        1.0000        0.0000   114723  100.00%
     16    18        0.0000   544        1.0000        0.0000   115540  100.00%
     17    19        0.0000   518        1.0000        0.0000   122048  100.00%
     18    20        0.0000   466        1.0000        0.0000   125550  100.00%
     19    21        0.0000   469        1.0000        0.0000   128143  100.00%
     20    22        0.0000   464        1.0000        0.0000   128334  100.00%
     21    23        0.0000   462        1.0000        0.0000   129218  100.00%
Elapsed time = 128.40 sec. (113080.24 ticks, tree = 0.59 MB, solutions = 3)
     23    25        0.0000   849        1.0000        0.0000   138249  100.00%
     24    26        0.0000   526        1.0000        0.0000   159803  100.00%
     26    28        0.0000   472        1.0000        0.0000   162537  100.00%
     28    30        0.0000   409        1.0000        0.0000   165371  100.00%
     29    31        0.0000   439        1.0000        0.0000   170650  100.00%
     30    32        0.0000  1470        1.0000        0.0000   201459  100.00%
     31    33        0.0000   417        1.0000        0.0000   202541  100.00%
     32    34        0.0000   417        1.0000        0.0000   204691  100.00%
     33    35        0.0000   372        1.0000        0.0000   217174  100.00%
     34    36        0.0000   455        1.0000        0.0000   244819  100.00%
Elapsed time = 203.96 sec. (180673.43 ticks, tree = 0.91 MB, solutions = 3)
     35    37        0.0000   629        1.0000        0.0000   252966  100.00%
     36    38        0.0000   987        1.0000        0.0000   259521  100.00%
     37    39        0.0000   455        1.0000        0.0000   259524  100.00%
     38    40        0.0000   479        1.0000        0.0000   259915  100.00%
     40    42       -0.0000   436        1.0000        0.0000   266371  100.00%
     41    43        0.0000   426        1.0000        0.0000   281210  100.00%
     42    44        0.0000   440        1.0000        0.0000   295438  100.00%
     43    45        0.0000   385        1.0000        0.0000   314911  100.00%
     44    46        0.0000   384        1.0000        0.0000   338455  100.00%
     45    47        0.0000   559        1.0000        0.0000   357202  100.00%
Elapsed time = 280.16 sec. (247913.01 ticks, tree = 1.34 MB, solutions = 3)
     46    48        0.0000   388        1.0000        0.0000   364264  100.00%
     47    49        0.0000  1002        1.0000        0.0000   388100  100.00%
     48    50        0.0000   382        1.0000        0.0000   399600  100.00%
     49    51        0.0000   416        1.0000        0.0000   411361  100.00%
     50    52        0.0000   595        1.0000        0.0000   441282  100.00%
     51    53        0.0000   541        1.0000        0.0000   456869  100.00%
     52    54        0.0000   406        1.0000        0.0000   458630  100.00%
     53    55        0.0000   422        1.0000        0.0000   473420  100.00%
     54    56        0.0000   730        1.0000        0.0000   495434  100.00%
     55    57        0.0000   409        1.0000        0.0000   514013  100.00%
Elapsed time = 375.03 sec. (330915.09 ticks, tree = 1.56 MB, solutions = 3)
     56    58        0.0000   437        1.0000        0.0000   520197  100.00%
     57    59        0.0000   510        1.0000        0.0000   523195  100.00%
     58    60        0.0000   458        1.0000        0.0000   541301  100.00%
     59    61        0.0000   440        1.0000        0.0000   542644  100.00%
     61    63        0.0000   436        1.0000        0.0000   544277  100.00%
     62    64        0.0000   470        1.0000        0.0000   553568  100.00%
     64    66        0.0000   434        1.0000        0.0000   557627  100.00%
     66    68        0.0000   387        1.0000        0.0000   561605  100.00%
     68    70        0.0000   389        1.0000        0.0000   562727  100.00%
     70    72        0.0000   392        1.0000        0.0000   563150  100.00%
Elapsed time = 412.54 sec. (365335.98 ticks, tree = 2.10 MB, solutions = 3)
     73    75        0.0000   390        1.0000        0.0000   564391  100.00%
     75    77        0.0000   455        1.0000        0.0000   572309  100.00%
     78    80       -0.0000   379        1.0000        0.0000   577020  100.00%
     80    82        0.0000   410        1.0000        0.0000   586333  100.00%
     82    84        0.0000   347        1.0000        0.0000   588556  100.00%
     84    86        0.0000   343        1.0000        0.0000   590558  100.00%
     86    88        0.0000   342        1.0000        0.0000   591352  100.00%
     87    89        0.0000   399        1.0000        0.0000   598590  100.00%
     89    91        0.0000   349        1.0000        0.0000   600374  100.00%
     91    93        0.0000   365        1.0000        0.0000   608825  100.00%
Elapsed time = 436.61 sec. (387191.40 ticks, tree = 2.91 MB, solutions = 3)
     93    95        0.0000   345        1.0000        0.0000   611056  100.00%
     94    96        0.0000   343        1.0000        0.0000   615050  100.00%
     96    98        0.0000   341        1.0000        0.0000   618652  100.00%
     99   101        0.0000   326        1.0000        0.0000   619326  100.00%
    100   102        0.0000   334        1.0000        0.0000   619604  100.00%
    103   105        0.0000   304        1.0000        0.0000   620743  100.00%
    105   107       -0.0000   252        1.0000        0.0000   624703  100.00%
    107   109        0.0000   281        1.0000        0.0000   628783  100.00%
    110   112       -0.0000   339        1.0000        0.0000   635087  100.00%
    112   114        0.0000   271        1.0000        0.0000   639406  100.00%
Elapsed time = 451.75 sec. (401427.35 ticks, tree = 3.73 MB, solutions = 3)
    114   116        0.0000   213        1.0000        0.0000   644065  100.00%
    117   119        0.0000   229        1.0000        0.0000   648316  100.00%
    120   122        0.0000   230        1.0000        0.0000   650712  100.00%
    123   125        0.0000   219        1.0000        0.0000   653251  100.00%
    127   129        0.0000   202        1.0000        0.0000   657529  100.00%
    130   132        0.0000   176        1.0000        0.0000   658799  100.00%
    133   135        0.0000   170        1.0000        0.0000   659792  100.00%
    137   139        0.0000   155        1.0000        0.0000   660709  100.00%
    139   141        0.0000   154        1.0000        0.0000   663958  100.00%
    140   142        0.0000   155        1.0000        0.0000   665698  100.00%
Elapsed time = 466.41 sec. (416119.28 ticks, tree = 4.82 MB, solutions = 3)
    143   145        0.0000   179        1.0000        0.0000   670441  100.00%
    147   149       -0.0000   138        1.0000        0.0000   672502  100.00%
    150   152        0.0000   139        1.0000        0.0000   674666  100.00%
    153   155       -0.0000   126        1.0000        0.0000   677159  100.00%
    156   158        0.0000   188        1.0000        0.0000   681884  100.00%
    160   162        0.0000   182        1.0000        0.0000   688916  100.00%
    162   164       -0.0000   133        1.0000        0.0000   692195  100.00%
    165   167        0.0000   129        1.0000        0.0000   694231  100.00%
    170   172        0.0000    96        1.0000        0.0000   695850  100.00%
    182   184        0.0000   170        1.0000        0.0000   709125  100.00%
Elapsed time = 483.20 sec. (433332.96 ticks, tree = 6.45 MB, solutions = 3)
    193   195        0.0000   102        1.0000        0.0000   719834  100.00%
    201   203       -0.0000   114        1.0000        0.0000   733504  100.00%
    212   214       -0.0000   140        1.0000        0.0000   743990  100.00%
    220   222        0.0000    99        1.0000        0.0000   758555  100.00%
    232   234        0.0000   104        1.0000        0.0000   767807  100.00%
    244   246        0.0000    88        1.0000        0.0000   776992  100.00%
    254   256        0.0000    82        1.0000        0.0000   789436  100.00%
    261   263        0.0000    88        1.0000        0.0000   803244  100.00%
    268   270        0.0000    82        1.0000        0.0000   816641  100.00%
    281   283        0.0000    84        1.0000        0.0000   825594  100.00%
Elapsed time = 554.08 sec. (499207.09 ticks, tree = 10.35 MB, solutions = 3)
    293   295        0.0000   101        1.0000        0.0000   837980  100.00%
Starting limited solution polishing.
*   300+  300                            0.5000        0.0000           100.00%
    305   307        0.0000    94        0.5000        0.0000   851665  100.00%
    316   318        0.0000    86        0.5000        0.0000   862127  100.00%
    326   328        0.0000   100        0.5000        0.0000   878419  100.00%
    342   344        0.0000   127        0.5000        0.0000   886100  100.00%
    356   358        0.0000   103        0.5000        0.0000   894150  100.00%
    368   370        0.0002   822        0.5000        0.0000   912508  100.00%
    381   383       -0.0000   114        0.5000        0.0000   922895  100.00%
    391   393        0.0000   104        0.5000        0.0000   937172  100.00%
*   400+  400                            0.3333        0.0000           100.00%
    400   402        0.0000    98        0.3333        0.0000   954847  100.00%
Elapsed time = 598.67 sec. (541465.15 ticks, tree = 14.99 MB, solutions = 5)

Root node processing (before b&c):
  Real time             =   39.95 sec. (33838.73 ticks)
Sequential b&c:
  Real time             =  560.06 sec. (508773.14 ticks)
                          ------------
Total (root+branch&cut) =  600.00 sec. (542611.87 ticks)
Primal:	0.333333
Dual:	0
Status:	Feasible
Time:	600.03
Sequence:
	0
	10
	19
	0
	10
	3
	4
	10
	2
	0
	15
	0
	0
	15
	16
	0
	15
	7
	6
	15
	7
	16
	15
	0
	0
	15
	0
	2
	15
	7
	0
	15
	16
	7
	10
	0
	19
	18
	5
	11
	1
	14
	3
	18
	4
	14
	18
	3
	14
	1
	9
	14
	1
	8
	14
	1
	11
	5
	18
	11
	5
	13
	11
	12
	1
	9
	14
	1
	11
	12
	13
	11
	5
	18
	19
	5
	18
	9
	12
	13
	11
	12
	13
	11
	5
	18
	19
	5
	18
	9
	5
	16
	9
	17
	2
	19
	10
	0
	6
	15
	2
	6
	15
	7
	16
	15
	0
	7
	15
	16
	0
	17
	9
	7
	14
	8
	18
	5
	9
	18
	5
	8
	13
	12
	8
	13
	5
	8
	18
	12
	9
	13
	12
	8
	13
	5
	11
	1
	14
	8
	1
	14
	9
	1
	14
	8
	1
	14
	9
	1
	14
	8
	18
	5
	9
	0
	17
	19
	2
	17
	19
	0
	10
	2
	9
	10
	6
	8
	10
	0
	19
	17
	2
	19
	17
	7
	19
	17
	0
	19
	10
	0
	8
	17
	16
	0
	15
	16
	7
	15
	6
	2
	17
	16
	3
	17
	4
	3
	18
	14
	4
	3
	10
	4
	16
	17
	9
	2
	17
	8
	16
	17
	11
	0
	17
	19
	2
	10
	16
	7
	15
	2
	7
	15
	7
	16
	15
	7
	0
	15
	16
	7
	17
	8
	2
	14
	9
	7
	17
	8
	7
	14
	9
	2
	17
	11
	7
	17
	19
	2
	10
	9
	6
	10
	8
	16
	17
	9
	2
	10
	4
	3
	10
	4
	3
	10
	4
	16
	17
	11
	6
	10
	8
	6
	10
	3
	4
	10
	3
	4
	10
	3
	4
	17
	2
	11
	5
	13
	8
	12
	13
	11
	5
	18
	19
	5
	18
	9
	12
	13
	9
	5
	18
	8
	14
	0
	1
	14
	8
	1
	14
	9
	1
	14
	11
	1
	14
	9
	1
	14
	11
	1
	14
	3
	4
	14
	1
	9
	12
	13
	11
	5
	18
	19
	5
	18
	9
	5
	13
	8
	12
	13
	9
	12
	18
	19
	5
	1
	9
	14
	1
	11
	14
	1
	3
	12
	13
	2
	5
	19
	18
	5
	9
	2
	17
	3
	2
	10
	11
	7
	17
	4
	3
	10
	4
	3
	10
	4
	3
	10
	4
	3
	10
	4
	16
	17
	11
	16
	17
	9
	7
	5
	19
	18
	5
	8
	13
	12
	8
	13
	5
	9
	18
	5
	8
	13
	5
	11
	13
	5
	8
	18
	14
	8
	1
	14
	8
	1
	14
	4
	18
	5
	19
	1
	5
	11
	13
	12
	9
	13
	12
	9
	7
	14
	8
	18
	5
	9
	13
	12
	11
	18
	5
	9
	18
	12
	9
	13
	5
	11
	13
	5
	11
	1
	14
	4
	3
	17
	16
	7
	15
	16
	7
	15
	0
	16
	15
	7
	7
	15
	16
	0
	15
	6
	2
	15
	6
	7
	15
	16
	7
	15
	7
	16
	15
	7
	6
	15
	2
	6
	15
	7
	6
	15
	2
	6
	15
	7
	16
	15
